Name:		BHW18
Optimal value:	-1
#Vehicles:	-1
Capacity:	190
Depot Node:	1
#Nodes:		77
#Edges:		0
#Arcs:		196
#Required N:	20
#Required E:	0
#Required A:	174

ReN.	DEMAND	S. COST
N63	35	35
N64	27	27
N18	14	14
N37	11	11
N36	14	14
N68	32	32
N38	14	14
N58	35	35
N45	27	27
N3	35	35
N57	24	24
N55	34	34
N10	35	35
N17	21	21
N23	24	24
N2	21	21
N25	28	28
N42	30	30
N75	21	21
N69	17	17

ReE.	From N.	To N.	T. COST	DEMAND	S. COST

EDGE	FROM N.	TO N.	T. COST

ReA.	FROM N.	TO N.	T. COST	DEMAND	S. COST
A1	1	2	32	32	64
A2	2	3	14	14	28
A3	2	4	17	17	34
A4	4	5	56	56	112
A5	5	6	8	8	16
A6	5	7	6	6	12
A7	7	8	18	18	36
A8	8	9	26	26	52
A9	9	10	20	20	40
A10	11	12	32	32	64
A11	12	16	29	29	58
A12	13	16	13	13	26
A13	13	14	7	7	14
A14	13	77	12	12	24
A15	15	17	26	26	52
A16	15	18	38	38	76
A17	18	19	41	41	82
A18	19	20	32	32	64
A19	18	20	21	21	42
A20	19	21	38	38	76
A21	21	22	17	17	34
A22	22	75	24	24	48
A23	22	24	4	4	8
A24	24	25	27	27	54
A25	25	75	16	16	32
A26	25	26	17	17	34
A27	23	26	12	12	24
A28	26	27	15	15	30
A29	26	28	18	18	36
A30	28	29	16	16	32
A31	25	29	27	27	54
A32	30	31	14	14	28
A33	23	31	40	40	80
A34	31	32	58	58	116
A35	32	33	30	30	60
A36	32	34	43	43	86
A37	32	35	86	86	172
A38	33	36	27	27	54
A39	33	37	75	75	150
A40	37	38	8	8	16
A41	37	39	21	21	42
A42	39	40	5	5	10
A43	35	39	7	7	14
A44	35	41	15	15	30
A45	43	44	78	78	156
A46	44	45	12	12	24
A47	45	46	12	12	24
A48	44	46	13	13	26
A49	46	47	33	33	66
A50	47	48	10	10	20
A51	47	49	9	9	18
A52	49	50	8	8	16
A53	49	51	10	10	20
A54	50	52	2	2	4
A55	51	53	4	4	8
A56	52	53	4	4	8
A57	52	54	4	4	8
A58	24	53	24	24	48
A59	19	50	30	30	60
A60	55	56	6	6	12
A61	42	57	14	14	28
A62	57	58	78	78	156
A63	58	59	25	25	50
A64	11	59	78	78	156
A65	58	60	33	33	66
A66	60	61	39	39	78
A67	60	62	23	23	46
A68	62	63	30	30	60
A69	63	64	9	9	18
A70	63	65	21	21	42
A71	62	66	16	16	32
A72	66	68	45	45	90
A73	58	69	32	32	64
A74	59	69	11	11	22
A75	4	69	75	75	150
A76	70	71	56	56	112
A77	71	72	6	6	12
A78	71	73	5	5	10
A79	72	73	5	5	10
A80	73	74	25	25	50
A81	18	72	92	92	184
A82	23	75	17	17	34
A83	20	76	8	8	16
A84	15	77	13	13	26
A85	76	77	35	35	70
A86	21	51	2	2	4
A87	44	59	28	28	56
A88	2	1	32	32	64
A89	3	2	14	14	28
A90	4	2	17	17	34
A91	5	4	56	56	112
A92	6	5	8	8	16
A93	7	5	6	6	12
A94	8	7	18	18	36
A95	9	8	26	26	52
A96	10	9	20	20	40
A97	12	11	32	32	64
A98	16	12	29	29	58
A99	16	13	13	13	26
A100	14	13	7	7	14
A101	77	13	12	12	24
A102	17	15	26	26	52
A103	18	15	38	38	76
A104	19	18	41	41	82
A105	20	19	32	32	64
A106	20	18	21	21	42
A107	21	19	38	38	76
A108	22	21	17	17	34
A109	75	22	24	24	48
A110	24	22	4	4	8
A111	25	24	27	27	54
A112	75	25	16	16	32
A113	26	25	17	17	34
A114	26	23	12	12	24
A115	27	26	15	15	30
A116	28	26	18	18	36
A117	29	28	16	16	32
A118	29	25	27	27	54
A119	31	30	14	14	28
A120	31	23	40	40	80
A121	32	31	58	58	116
A122	33	32	30	30	60
A123	34	32	43	43	86
A124	35	32	86	86	172
A125	36	33	27	27	54
A126	37	33	75	75	150
A127	38	37	8	8	16
A128	39	37	21	21	42
A129	40	39	5	5	10
A130	39	35	7	7	14
A131	41	35	15	15	30
A132	44	43	78	78	156
A133	45	44	12	12	24
A134	46	45	12	12	24
A135	46	44	13	13	26
A136	47	46	33	33	66
A137	48	47	10	10	20
A138	49	47	9	9	18
A139	50	49	8	8	16
A140	51	49	10	10	20
A141	52	50	2	2	4
A142	53	51	4	4	8
A143	53	52	4	4	8
A144	54	52	4	4	8
A145	53	24	24	24	48
A146	50	19	30	30	60
A147	56	55	6	6	12
A148	57	42	14	14	28
A149	58	57	78	78	156
A150	59	58	25	25	50
A151	59	11	78	78	156
A152	60	58	33	33	66
A153	61	60	39	39	78
A154	62	60	23	23	46
A155	63	62	30	30	60
A156	64	63	9	9	18
A157	65	63	21	21	42
A158	66	62	16	16	32
A159	68	66	45	45	90
A160	69	58	32	32	64
A161	69	59	11	11	22
A162	69	4	75	75	150
A163	71	70	56	56	112
A164	72	71	6	6	12
A165	73	71	5	5	10
A166	73	72	5	5	10
A167	74	73	25	25	50
A168	72	18	92	92	184
A169	75	23	17	17	34
A170	76	20	8	8	16
A171	77	15	13	13	26
A172	77	76	35	35	70
A173	51	21	2	2	4
A174	59	44	28	28	56

ARC	FROM N.	TO N.	T. COST
NrA1	10	11	12
NrA2	14	15	7
NrA3	40	41	9
NrA4	41	42	18
NrA5	42	43	11
NrA6	11	48	79
NrA7	42	56	26
NrA8	56	67	36
NrA9	12	76	7
NrA10	60	67	29
NrA11	62	67	31
NrA12	11	10	12
NrA13	15	14	7
NrA14	41	40	9
NrA15	42	41	18
NrA16	43	42	11
NrA17	48	11	79
NrA18	56	42	26
NrA19	67	56	36
NrA20	76	12	7
NrA21	67	60	29
NrA22	67	62	31
based on carp instance egl e3 B
